unsat
(:max-memory         18.42
 :memory             18.33
 :nlsat-arith-var    3
 :nlsat-atoms        11
 :nlsat-bool-var     1
 :nlsat-clauses      8
 :nlsat-conflicts    4
 :nlsat-decisions    1
 :nlsat-propagations 12
 :nlsat-stages       3
 :num-allocs         51368
 :rlimit-count       1135
 :time               0.00
 :total-time         0.01)
